unsat
(define-fun f ((x (_ BitVec 64))) (_ BitVec 64) (let ((_let_1 (bvor #b0000000000000000000000000000000000000000000000000000000000000001 x))) (let ((_let_2 (bvnot x))) (let ((_let_3 (smol x))) (im (bvand #b0000000000000000000000000000000000000000000000000000000000000001 (ehad x)) (im (bvand #b0000000000000000000000000000000000000000000000000000000000000001 (shesh _let_3)) (im (bvand #b0000000000000000000000000000000000000000000000000000000000000001 (shesh x)) (im (bvand #b0000000000000000000000000000000000000000000000000000000000000001 (arba x)) (im (bvand #b0000000000000000000000000000000000000000000000000000000000000001 _let_2) _let_2 _let_1) _let_1) (im (bvand #b0000000000000000000000000000000000000000000000000000000000000001 (arba _let_3)) _let_1 _let_2)) _let_2) _let_1)))))
0.08user 0.00system 0:00.08elapsed 100%CPU (0avgtext+0avgdata 28616maxresident)k
0inputs+8outputs (0major+1834minor)pagefaults 0swaps
